
Gurobi 11.0.0 (win64, C++) logging started Wed Jul 30 02:18:17 2025

Set parameter TokenServer to value "141.76.38.119"
### START HEURISTIC APPROACH APPROACH ###
ProblemVariant: 1
### START PREPROCESSING ###
## Start start solution procedure ##
Not enough vehicles for start solution, copying existing vehicle(s)...
Copied 2 vehicle(s). Total vehicles now: 13
Start solution with 13 Vehicles and total costs 739.757 in 1.37021 s.
### END PREPROCESSING ###
Route 0 0-29-21-30-0 : weight util 0.940299 | volume util 0.202111 | infeasible with packing heuristic | feasible with CP model
Route 1 0-6-33-1-0 : weight util 0.955224 | volume util 0.410111 | infeasible with packing heuristic | feasible with CP model
Route 2 0-17-32-3-0 : weight util 0.880597 | volume util 0.272756 | infeasible with packing heuristic | feasible with CP model
Route 3 0-26-12-9-0 : weight util 0.940299 | volume util 0.312244 | infeasible with packing heuristic | feasible with CP model
Route 4 0-25-31-10-0 : weight util 0.970149 | volume util 0.237578 | infeasible with packing heuristic | feasible with CP model
Route 5 0-5-20-15-13-0 : weight util 0.940299 | volume util 0.440289 | infeasible with packing heuristic | feasible with CP model
Route 6 0-35-11-7-0 : weight util 0.925373 | volume util 0.474867 | infeasible with packing heuristic | feasible with CP model
Route 7 0-16-23-24-18-0 : weight util 0.970149 | volume util 0.397511 | infeasible with packing heuristic | feasible with CP model
Route 8 0-2-28-22-0 : weight util 1.000000 | volume util 0.317178 | infeasible with packing heuristic | feasible with CP model
Route 9 0-4-27-34-0 : weight util 0.985075 | volume util 0.370933 | infeasible with packing heuristic | feasible with CP model
Route 10 0-8-19-14-0 : weight util 0.925373 | volume util 0.292356 | infeasible with packing heuristic | feasible with CP model
